DIMACS2
20 114 37 48 58 15 0 59 75 141 133 135 157 99 34 112 134 90 79 104 83
p edge 160 649
e 0 90 21.0
e 0 31 38.0
e 0 106 45.0
e 0 70 1.0
e 1 17 1.0
e 1 16 2.0
e 1 125 2.0
e 1 150 1.0
e 2 113 1.0
e 2 11 1.0
e 2 139 1.0
e 2 114 7.0
e 3 134 24.0
e 3 44 2.0
e 3 101 1.0
e 4 138 2.0
e 4 28 1.0
e 4 154 1.0
e 4 118 1.0
e 5 97 1.0
e 5 18 1.0
e 5 122 1.0
e 5 31 1.0
e 6 118 1.0
e 6 47 2.0
e 6 70 1.0
e 6 95 1.0
e 7 127 2.0
e 7 21 1.0
e 7 54 2.0
e 7 81 1.0
e 8 93 1.0
e 8 117 1.0
e 8 66 1.0
e 8 106 1.0
e 9 10 1.0
e 9 69 1.0
e 9 93 2.0
e 9 43 1.0
e 10 25 1.0
e 10 52 1.0
e 10 113 1.0
e 10 20 1.0
e 11 36 1.0
e 11 53 1.0
e 11 12 1.0
e 11 115 1.0
e 12 52 1.0
e 12 106 1.0
e 12 63 1.0
e 12 101 1.0
e 13 28 1.0
e 13 81 1.0
e 13 135 35.0
e 13 46 1.0
e 14 98 2.0
e 14 64 1.0
e 14 36 1.0
e 14 9 1.0
e 15 104 44.0
e 15 13 25.0
e 15 21 19.0
e 15 99 28.0
e 16 103 3.0
e 16 105 1.0
e 16 13 2.0
e 16 70 3.0
e 17 5 1.0
e 17 55 1.0
e 17 72 1.0
e 17 117 1.0
e 18 132 1.0
e 18 98 1.0
e 18 68 1.0
e 18 85 1.0
e 19 148 1.0
e 19 128 1.0
e 19 76 1.0
e 19 118 1.0
e 20 123 1.0
e 20 78 1.0
e 20 94 1.0
e 21 90 39.0
e 21 148 1.0
e 21 94 1.0
e 21 123 2.0
e 22 55 1.0
e 22 41 2.0
e 22 113 1.0
e 22 89 1.0
e 23 86 2.0
e 23 134 11.0
e 23 110 3.0
e 23 57 1.0
e 24 119 1.0
e 24 13 1.0
e 24 43 1.0
e 24 20 1.0
e 25 85 1.0
e 25 141 19.0
e 25 62 1.0
e 25 20 2.0
e 26 135 40.0
e 26 6 2.0
e 26 96 1.0
e 26 70 1.0
e 27 0 15.0
e 27 67 1.0
e 27 25 1.0
e 27 22 1.0
e 28 57 1.0
e 28 65 1.0
e 28 61 1.0
e 28 75 48.0
e 29 141 37.0
e 29 63 2.0
e 29 60 2.0
e 29 55 1.0
e 30 43 1.0
e 30 86 1.0
e 30 64 1.0
e 30 61 1.0
e 31 53 1.0
e 31 9 1.0
e 31 135 26.0
e 31 44 1.0
e 32 37 18.0
e 32 38 1.0
e 32 26 1.0
e 32 131 1.0
e 33 36 1.0
e 33 117 1.0
e 33 7 2.0
e 33 16 2.0
e 34 22 45.0
e 34 78 4.0
e 34 18 37.0
e 34 86 41.0
e 34 37 46.0
e 34 133 16.0
e 34 48 23.0
e 35 5 2.0
e 35 121 2.0
e 35 10 1.0
e 35 80 3.0
e 36 105 1.0
e 36 74 1.0
e 36 138 1.0
e 36 23 1.0
e 37 123 20.0
e 37 10 17.0
e 37 117 15.0
e 37 109 21.0
e 38 60 1.0
e 38 19 1.0
e 38 126 1.0
e 38 28 1.0
e 39 44 1.0
e 39 88 1.0
e 39 80 2.0
e 39 94 1.0
e 40 149 2.0
e 40 146 1.0
e 40 33 3.0
e 40 37 14.0
e 41 95 2.0
e 41 158 1.0
e 41 15 6.0
e 41 51 2.0
e 42 0 36.0
e 42 63 1.0
e 42 78 1.0
e 42 147 1.0
e 43 16 3.0
e 43 146 2.0
e 43 76 2.0
e 43 135 8.0
e 44 154 1.0
e 44 131 1.0
e 44 36 1.0
e 45 44 1.0
e 45 135 35.0
e 45 112 45.0
e 45 154 1.0
e 46 2 1.0
e 46 59 14.0
e 46 99 21.0
e 46 142 1.0
e 47 139 1.0
e 47 151 1.0
e 47 149 2.0
e 47 107 2.0
e 48 151 9.0
e 48 114 27.0
e 48 132 29.0
e 48 133 23.0
e 48 37 46.0
e 49 114 12.0
e 49 86 1.0
e 49 137 1.0
e 49 80 2.0
e 50 72 1.0
e 50 27 1.0
e 50 64 1.0
e 50 144 1.0
e 51 117 2.0
e 51 36 1.0
e 51 1 1.0
e 51 135 48.0
e 52 57 1.0
e 52 18 2.0
e 52 4 2.0
e 52 97 3.0
e 53 78 1.0
e 53 85 1.0
e 53 15 6.0
e 53 132 1.0
e 54 158 2.0
e 54 0 10.0
e 54 120 2.0
e 54 108 2.0
e 55 47 1.0
e 55 85 1.0
e 55 132 1.0
e 55 81 1.0
e 56 83 49.0
e 56 26 1.0
e 56 54 1.0
e 56 144 1.0
e 57 118 1.0
e 57 131 1.0
e 57 100 1.0
e 57 90 7.0
e 58 72 20.0
e 58 68 6.0
e 58 96 2.0
e 58 21 9.0
e 58 34 48.0
e 58 48 21.0
e 58 141 20.0
e 59 53 16.0
e 59 7 34.0
e 59 127 46.0
e 59 109 18.0
e 59 58 17.0
e 59 75 7.0
e 59 90 8.0
e 60 42 1.0
e 60 151 1.0
e 60 25 1.0
e 60 93 2.0
e 61 72 1.0
e 61 75 13.0
e 61 22 1.0
e 61 58 10.0
e 62 30 1.0
e 62 111 1.0
e 62 93 1.0
e 62 155 2.0
e 63 92 1.0
e 63 91 2.0
e 63 7 1.0
e 63 79 27.0
e 64 20 1.0
e 64 71 1.0
e 64 101 1.0
e 64 99 31.0
e 65 148 1.0
e 65 133 39.0
e 65 63 1.0
e 65 95 1.0
e 66 68 1.0
e 66 60 1.0
e 66 74 1.0
e 66 44 1.0
e 67 10 2.0
e 67 83 41.0
e 67 71 2.0
e 67 108 3.0
e 68 132 1.0
e 68 98 1.0
e 68 48 11.0
e 68 124 2.0
e 69 152 2.0
e 69 156 1.0
e 69 11 1.0
e 69 70 1.0
e 70 157 19.0
e 70 56 1.0
e 70 114 41.0
e 71 150 1.0
e 71 68 1.0
e 71 101 1.0
e 71 31 1.0
e 72 21 1.0
e 72 46 1.0
e 72 113 1.0
e 72 157 13.0
e 73 63 1.0
e 73 143 1.0
e 73 87 1.0
e 73 55 1.0
e 74 40 1.0
e 74 126 1.0
e 74 110 1.0
e 74 12 1.0
e 75 39 45.0
e 75 37 43.0
e 75 90 37.0
e 75 138 4.0
e 75 79 16.0
e 76 139 1.0
e 76 26 1.0
e 76 92 1.0
e 76 155 1.0
e 77 140 1.0
e 77 98 1.0
e 77 78 1.0
e 77 38 1.0
e 78 22 2.0
e 78 130 1.0
e 78 150 1.0
e 78 30 1.0
e 79 91 6.0
e 79 149 41.0
e 79 56 7.0
e 79 32 7.0
e 79 59 19.0
e 80 27 1.0
e 80 91 1.0
e 80 60 1.0
e 80 106 2.0
e 81 105 1.0
e 81 24 1.0
e 81 112 26.0
e 81 15 42.0
e 82 56 1.0
e 82 158 1.0
e 82 127 1.0
e 82 126 1.0
e 83 46 39.0
e 83 61 5.0
e 83 106 37.0
e 83 28 29.0
e 83 75 42.0
e 83 79 32.0
e 83 90 1.0
e 84 137 1.0
e 84 87 1.0
e 84 98 1.0
e 84 52 1.0
e 85 103 2.0
e 85 112 30.0
e 85 127 2.0
e 85 16 1.0
e 86 3 2.0
e 86 157 29.0
e 86 126 1.0
e 86 53 1.0
e 87 110 1.0
e 87 128 1.0
e 87 93 2.0
e 87 121 1.0
e 88 117 1.0
e 88 44 1.0
e 88 158 1.0
e 88 130 1.0
e 89 95 1.0
e 89 130 1.0
e 89 76 2.0
e 89 20 2.0
e 90 80 34.0
e 90 27 20.0
e 90 73 5.0
e 90 2 32.0
e 91 20 1.0
e 91 25 1.0
e 91 128 1.0
e 91 116 1.0
e 92 104 5.0
e 92 99 42.0
e 92 143 1.0
e 92 52 2.0
e 93 15 45.0
e 93 45 1.0
e 93 36 1.0
e 93 32 1.0
e 94 32 1.0
e 94 46 1.0
e 94 75 21.0
e 94 107 2.0
e 95 52 1.0
e 95 43 1.0
e 95 21 1.0
e 95 101 1.0
e 96 12 1.0
e 96 69 1.0
e 96 120 1.0
e 96 109 2.0
e 97 4 2.0
e 97 123 2.0
e 97 78 1.0
e 97 154 1.0
e 98 95 2.0
e 98 155 1.0
e 98 63 1.0
e 98 1 1.0
e 99 138 29.0
e 99 4 18.0
e 99 114 16.0
e 99 63 22.0
e 100 74 1.0
e 100 137 2.0
e 100 14 2.0
e 100 40 1.0
e 101 53 1.0
e 101 29 1.0
e 101 65 1.0
e 101 117 1.0
e 102 0 46.0
e 102 66 1.0
e 102 114 15.0
e 102 77 1.0
e 103 121 2.0
e 103 40 2.0
e 103 48 29.0
e 103 115 1.0
e 104 142 28.0
e 104 62 46.0
e 104 97 2.0
e 104 59 35.0
e 105 156 1.0
e 105 117 1.0
e 105 41 1.0
e 105 56 1.0
e 106 16 1.0
e 106 145 1.0
e 106 100 2.0
e 106 154 1.0
e 107 8 1.0
e 107 143 1.0
e 107 1 1.0
e 107 41 2.0
e 108 132 1.0
e 108 4 1.0
e 108 91 1.0
e 108 89 1.0
e 109 34 43.0
e 109 107 1.0
e 109 3 2.0
e 109 19 1.0
e 110 125 1.0
e 110 2 1.0
e 110 43 1.0
e 110 6 1.0
e 111 150 1.0
e 111 116 1.0
e 111 103 2.0
e 111 91 1.0
e 112 116 20.0
e 112 153 2.0
e 112 120 45.0
e 112 152 34.0
e 113 157 26.0
e 113 30 1.0
e 113 115 3.0
e 113 15 43.0
e 114 132 27.0
e 114 52 36.0
e 114 47 3.0
e 115 78 1.0
e 115 38 2.0
e 115 49 1.0
e 115 112 17.0
e 116 52 1.0
e 116 122 2.0
e 116 73 1.0
e 116 109 2.0
e 117 48 15.0
e 117 10 1.0
e 117 104 42.0
e 117 23 2.0
e 118 97 2.0
e 118 13 1.0
e 118 93 1.0
e 118 146 1.0
e 119 7 2.0
e 119 21 1.0
e 119 156 2.0
e 119 47 2.0
e 120 30 1.0
e 120 73 3.0
e 120 1 2.0
e 120 86 2.0
e 121 89 1.0
e 121 113 1.0
e 121 52 2.0
e 121 132 1.0
e 122 88 1.0
e 122 132 1.0
e 122 106 1.0
e 122 92 1.0
e 123 152 2.0
e 123 154 2.0
e 123 125 1.0
e 123 26 1.0
e 124 11 1.0
e 124 28 1.0
e 124 36 1.0
e 124 149 2.0
e 125 104 2.0
e 125 70 1.0
e 125 5 1.0
e 125 93 2.0
e 126 5 1.0
e 126 130 1.0
e 126 131 1.0
e 126 54 1.0
e 127 106 2.0
e 127 139 3.0
e 128 76 1.0
e 128 60 1.0
e 128 31 1.0
e 129 104 12.0
e 129 96 1.0
e 129 137 1.0
e 129 76 1.0
e 130 24 1.0
e 130 69 1.0
e 130 4 1.0
e 131 121 1.0
e 131 107 1.0
e 131 97 2.0
e 131 109 1.0
e 132 64 1.0
e 132 123 1.0
e 132 70 1.0
e 132 31 1.0
e 133 0 19.0
e 133 56 42.0
e 133 154 43.0
e 133 86 46.0
e 134 35 19.0
e 134 65 5.0
e 134 64 49.0
e 134 132 22.0
e 134 83 26.0
e 134 99 21.0
e 134 104 32.0
e 135 124 6.0
e 135 65 27.0
e 135 157 7.0
e 135 16 7.0
e 136 129 1.0
e 136 133 14.0
e 136 61 2.0
e 136 70 1.0
e 137 111 1.0
e 137 80 1.0
e 137 18 1.0
e 137 56 1.0
e 138 52 1.0
e 138 152 1.0
e 138 28 1.0
e 139 52 2.0
e 139 68 1.0
e 139 79 17.0
e 139 133 35.0
e 140 80 2.0
e 140 58 37.0
e 140 60 1.0
e 140 34 8.0
e 141 148 6.0
e 141 64 20.0
e 141 100 27.0
e 141 98 44.0
e 141 133 47.0
e 142 11 1.0
e 142 53 1.0
e 142 120 1.0
e 142 79 30.0
e 143 30 1.0
e 143 98 2.0
e 143 74 1.0
e 143 40 1.0
e 144 156 1.0
e 144 122 1.0
e 144 10 1.0
e 144 76 1.0
e 145 9 1.0
e 145 68 1.0
e 145 108 1.0
e 145 24 1.0
e 146 80 1.0
e 146 88 1.0
e 146 70 1.0
e 146 124 2.0
e 147 88 1.0
e 147 107 1.0
e 147 157 13.0
e 147 15 24.0
e 148 37 26.0
e 148 43 1.0
e 148 14 1.0
e 148 155 1.0
e 149 15 38.0
e 149 32 1.0
e 149 144 1.0
e 149 35 2.0
e 150 146 1.0
e 150 28 1.0
e 150 44 1.0
e 150 148 1.0
e 151 112 13.0
e 151 119 1.0
e 151 141 22.0
e 151 23 2.0
e 152 56 1.0
e 152 150 1.0
e 152 25 1.0
e 152 16 2.0
e 153 57 1.0
e 153 151 1.0
e 153 99 35.0
e 153 91 3.0
e 154 56 1.0
e 154 0 28.0
e 154 32 1.0
e 154 153 1.0
e 155 88 1.0
e 155 152 1.0
e 155 51 1.0
e 155 49 1.0
e 156 38 1.0
e 156 139 1.0
e 156 111 1.0
e 156 15 26.0
e 157 42 12.0
e 157 73 16.0
e 157 129 40.0
e 157 78 18.0
e 158 94 1.0
e 158 51 1.0
e 158 18 2.0
e 158 101 1.0
e 159 100 1.0
e 159 96 1.0
e 159 114 37.0
e 159 3 2.0
